p cnf 200 1110
-101 64 0
-101 -13 0
-101 -3 0
-101 77 0
-101 -74 0
-101 38 0
-101 -6 0
-101 80 0
-101 -97 0
-101 27 0
101 -64 13 3 -77 74 -38 6 -80 97 -27 0
-102 -57 0
-102 12 0
-102 -41 0
-102 -84 0
-102 -98 0
-102 28 0
-102 94 0
-102 62 0
-102 -61 0
-102 -97 0
102 57 -12 41 84 98 -28 -94 -62 61 97 0
-103 80 0
-103 -84 0
-103 -11 0
-103 70 0
-103 -4 0
-103 42 0
-103 -46 0
-103 -82 0
-103 89 0
-103 -44 0
103 -80 84 11 -70 4 -42 46 82 -89 44 0
-104 -14 0
-104 -85 0
-104 51 0
-104 -3 0
-104 -10 0
-104 -6 0
-104 -67 0
-104 68 0
-104 8 0
-104 -13 0
104 14 85 -51 3 10 6 67 -68 -8 13 0
-105 68 0
-105 -7 0
-105 20 0
-105 -30 0
-105 -6 0
-105 -88 0
-105 97 0
-105 76 0
-105 19 0
-105 53 0
105 -68 7 -20 30 6 88 -97 -76 -19 -53 0
-106 42 0
-106 79 0
-106 60 0
-106 53 0
-106 74 0
-106 54 0
-106 4 0
-106 -65 0
-106 -52 0
-106 5 0
106 -42 -79 -60 -53 -74 -54 -4 65 52 -5 0
-107 42 0
-107 23 0
-107 39 0
-107 -60 0
-107 21 0
-107 90 0
-107 -46 0
-107 17 0
-107 -18 0
-107 -27 0
107 -42 -23 -39 60 -21 -90 46 -17 18 27 0
-108 -56 0
-108 13 0
-108 -86 0
-108 -10 0
-108 4 0
-108 23 0
-108 -43 0
-108 -81 0
-108 -26 0
-108 -98 0
108 56 -13 86 10 -4 -23 43 81 26 98 0
-109 -78 0
-109 75 0
-109 -44 0
-109 80 0
-109 -12 0
-109 2 0
-109 18 0
-109 -61 0
-109 84 0
-109 -77 0
109 78 -75 44 -80 12 -2 -18 61 -84 77 0
-110 74 0
-110 -15 0
-110 46 0
-110 26 0
-110 -100 0
-110 -77 0
-110 62 0
-110 -76 0
-110 -22 0
-110 30 0
110 -74 15 -46 -26 100 77 -62 76 22 -30 0
101 102 103 104 105 106 107 108 109 110 0
-111 -93 0
-111 -26 0
-111 48 0
-111 -32 0
-111 -53 0
-111 76 0
-111 -1 0
-111 94 0
-111 69 0
-111 89 0
111 93 26 -48 32 53 -76 1 -94 -69 -89 0
-112 51 0
-112 57 0
-112 -9 0
-112 -14 0
-112 64 0
-112 -84 0
-112 50 0
-112 -20 0
-112 24 0
-112 -7 0
112 -51 -57 9 14 -64 84 -50 20 -24 7 0
-113 -78 0
-113 -59 0
-113 -44 0
-113 -18 0
-113 -26 0
-113 -52 0
-113 -74 0
-113 65 0
-113 82 0
-113 -55 0
113 78 59 44 18 26 52 74 -65 -82 55 0
-114 98 0
-114 -26 0
-114 -3 0
-114 17 0
-114 50 0
-114 -97 0
-114 64 0
-114 86 0
-114 22 0
-114 -46 0
114 -98 26 3 -17 -50 97 -64 -86 -22 46 0
-115 -46 0
-115 -99 0
-115 80 0
-115 -1 0
-115 -3 0
-115 13 0
-115 -24 0
-115 21 0
-115 -10 0
-115 51 0
115 46 99 -80 1 3 -13 24 -21 10 -51 0
-116 -21 0
-116 70 0
-116 41 0
-116 80 0
-116 -62 0
-116 -6 0
-116 8 0
-116 98 0
-116 -1 0
-116 -14 0
116 21 -70 -41 -80 62 6 -8 -98 1 14 0
-117 -40 0
-117 48 0
-117 -19 0
-117 2 0
-117 -9 0
-117 -84 0
-117 57 0
-117 -88 0
-117 -7 0
-117 -49 0
117 40 -48 19 -2 9 84 -57 88 7 49 0
-118 -44 0
-118 -97 0
-118 -26 0
-118 -89 0
-118 81 0
-118 -56 0
-118 73 0
-118 59 0
-118 -21 0
-118 -64 0
118 44 97 26 89 -81 56 -73 -59 21 64 0
-119 70 0
-119 -7 0
-119 86 0
-119 10 0
-119 43 0
-119 -4 0
-119 56 0
-119 -72 0
-119 54 0
-119 8 0
119 -70 7 -86 -10 -43 4 -56 72 -54 -8 0
-120 -65 0
-120 -70 0
-120 -5 0
-120 -44 0
-120 17 0
-120 40 0
-120 -74 0
-120 11 0
-120 57 0
-120 -38 0
120 65 70 5 44 -17 -40 74 -11 -57 38 0
111 112 113 114 115 116 117 118 119 120 0
-121 -46 0
-121 53 0
-121 89 0
-121 -86 0
-121 -13 0
-121 34 0
-121 81 0
-121 85 0
-121 73 0
-121 59 0
121 46 -53 -89 86 13 -34 -81 -85 -73 -59 0
-122 -59 0
-122 -40 0
-122 5 0
-122 -33 0
-122 -34 0
-122 1 0
-122 -41 0
-122 -98 0
-122 -80 0
-122 45 0
122 59 40 -5 33 34 -1 41 98 80 -45 0
-123 43 0
-123 -92 0
-123 93 0
-123 1 0
-123 32 0
-123 -81 0
-123 37 0
-123 -36 0
-123 31 0
-123 49 0
123 -43 92 -93 -1 -32 81 -37 36 -31 -49 0
-124 -5 0
-124 71 0
-124 -31 0
-124 9 0
-124 -21 0
-124 19 0
-124 15 0
-124 58 0
-124 29 0
-124 46 0
124 5 -71 31 -9 21 -19 -15 -58 -29 -46 0
-125 -92 0
-125 -80 0
-125 7 0
-125 -74 0
-125 -51 0
-125 23 0
-125 -41 0
-125 95 0
-125 66 0
-125 -84 0
125 92 80 -7 74 51 -23 41 -95 -66 84 0
-126 45 0
-126 85 0
-126 -2 0
-126 -4 0
-126 -47 0
-126 -63 0
-126 79 0
-126 100 0
-126 -81 0
-126 -29 0
126 -45 -85 2 4 47 63 -79 -100 81 29 0
-127 -66 0
-127 46 0
-127 -71 0
-127 10 0
-127 -42 0
-127 14 0
-127 63 0
-127 -2 0
-127 -36 0
-127 38 0
127 66 -46 71 -10 42 -14 -63 2 36 -38 0
-128 -13 0
-128 -69 0
-128 -67 0
-128 -40 0
-128 -39 0
-128 -93 0
-128 55 0
-128 84 0
-128 -10 0
-128 -87 0
128 13 69 67 40 39 93 -55 -84 10 87 0
-129 -9 0
-129 -47 0
-129 -19 0
-129 79 0
-129 57 0
-129 -44 0
-129 -14 0
-129 -71 0
-129 70 0
-129 42 0
129 9 47 19 -79 -57 44 14 71 -70 -42 0
-130 78 0
-130 59 0
-130 25 0
-130 60 0
-130 -99 0
-130 31 0
-130 89 0
-130 -43 0
-130 13 0
-130 27 0
130 -78 -59 -25 -60 99 -31 -89 43 -13 -27 0
121 122 123 124 125 126 127 128 129 130 0
-131 -37 0
-131 40 0
-131 -20 0
-131 51 0
-131 -90 0
-131 -95 0
-131 86 0
-131 97 0
-131 -5 0
-131 -87 0
131 37 -40 20 -51 90 95 -86 -97 5 87 0
-132 85 0
-132 -1 0
-132 -16 0
-132 -53 0
-132 -100 0
-132 -25 0
-132 -68 0
-132 -36 0
-132 -30 0
-132 84 0
132 -85 1 16 53 100 25 68 36 30 -84 0
-133 -44 0
-133 -71 0
-133 -45 0
-133 -7 0
-133 -17 0
-133 40 0
-133 66 0
-133 97 0
-133 22 0
-133 14 0
133 44 71 45 7 17 -40 -66 -97 -22 -14 0
-134 -43 0
-134 -4 0
-134 -85 0
-134 -24 0
-134 78 0
-134 -15 0
-134 5 0
-134 -3 0
-134 73 0
-134 -22 0
134 43 4 85 24 -78 15 -5 3 -73 22 0
-135 -81 0
-135 39 0
-135 92 0
-135 -83 0
-135 63 0
-135 34 0
-135 -96 0
-135 56 0
-135 -30 0
-135 -67 0
135 81 -39 -92 83 -63 -34 96 -56 30 67 0
-136 -59 0
-136 -25 0
-136 -65 0
-136 -36 0
-136 -8 0
-136 -50 0
-136 -51 0
-136 -84 0
-136 -27 0
-136 -67 0
136 59 25 65 36 8 50 51 84 27 67 0
-137 -9 0
-137 -97 0
-137 59 0
-137 42 0
-137 1 0
-137 75 0
-137 -26 0
-137 -60 0
-137 10 0
-137 -70 0
137 9 97 -59 -42 -1 -75 26 60 -10 70 0
-138 92 0
-138 24 0
-138 89 0
-138 -75 0
-138 60 0
-138 34 0
-138 -13 0
-138 12 0
-138 -21 0
-138 -97 0
138 -92 -24 -89 75 -60 -34 13 -12 21 97 0
-139 51 0
-139 -99 0
-139 53 0
-139 -100 0
-139 19 0
-139 -82 0
-139 45 0
-139 40 0
-139 76 0
-139 -77 0
139 -51 99 -53 100 -19 82 -45 -40 -76 77 0
-140 -62 0
-140 4 0
-140 63 0
-140 69 0
-140 96 0
-140 66 0
-140 8 0
-140 10 0
-140 31 0
-140 -33 0
140 62 -4 -63 -69 -96 -66 -8 -10 -31 33 0
131 132 133 134 135 136 137 138 139 140 0
-141 -50 0
-141 -10 0
-141 74 0
-141 -62 0
-141 86 0
-141 -93 0
-141 79 0
-141 20 0
-141 45 0
-141 47 0
141 50 10 -74 62 -86 93 -79 -20 -45 -47 0
-142 -94 0
-142 -35 0
-142 -73 0
-142 -48 0
-142 -1 0
-142 90 0
-142 17 0
-142 -44 0
-142 100 0
-142 -58 0
142 94 35 73 48 1 -90 -17 44 -100 58 0
-143 -53 0
-143 16 0
-143 89 0
-143 56 0
-143 26 0
-143 -41 0
-143 -96 0
-143 47 0
-143 4 0
-143 -19 0
143 53 -16 -89 -56 -26 41 96 -47 -4 19 0
-144 -48 0
-144 -34 0
-144 -89 0
-144 -26 0
-144 -56 0
-144 14 0
-144 44 0
-144 -95 0
-144 -90 0
-144 -77 0
144 48 34 89 26 56 -14 -44 95 90 77 0
-145 67 0
-145 8 0
-145 43 0
-145 -64 0
-145 -15 0
-145 63 0
-145 -52 0
-145 13 0
-145 -7 0
-145 75 0
145 -67 -8 -43 64 15 -63 52 -13 7 -75 0
-146 -30 0
-146 89 0
-146 53 0
-146 -59 0
-146 -2 0
-146 -7 0
-146 23 0
-146 8 0
-146 62 0
-146 74 0
146 30 -89 -53 59 2 7 -23 -8 -62 -74 0
-147 7 0
-147 -94 0
-147 70 0
-147 -67 0
-147 -39 0
-147 35 0
-147 -42 0
-147 -28 0
-147 85 0
-147 26 0
147 -7 94 -70 67 39 -35 42 28 -85 -26 0
-148 -58 0
-148 57 0
-148 -12 0
-148 8 0
-148 -97 0
-148 70 0
-148 48 0
-148 -7 0
-148 -4 0
-148 -15 0
148 58 -57 12 -8 97 -70 -48 7 4 15 0
-149 37 0
-149 14 0
-149 -41 0
-149 -78 0
-149 -4 0
-149 -61 0
-149 85 0
-149 -40 0
-149 -76 0
-149 30 0
149 -37 -14 41 78 4 61 -85 40 76 -30 0
-150 -84 0
-150 56 0
-150 -66 0
-150 -33 0
-150 28 0
-150 -25 0
-150 -77 0
-150 83 0
-150 -34 0
-150 64 0
150 84 -56 66 33 -28 25 77 -83 34 -64 0
141 142 143 144 145 146 147 148 149 150 0
-151 30 0
-151 32 0
-151 91 0
-151 27 0
-151 -8 0
-151 45 0
-151 52 0
-151 -7 0
-151 16 0
-151 10 0
151 -30 -32 -91 -27 8 -45 -52 7 -16 -10 0
-152 6 0
-152 -26 0
-152 -58 0
-152 -52 0
-152 -81 0
-152 41 0
-152 14 0
-152 -67 0
-152 97 0
-152 -91 0
152 -6 26 58 52 81 -41 -14 67 -97 91 0
-153 36 0
-153 -37 0
-153 -20 0
-153 67 0
-153 -52 0
-153 25 0
-153 -92 0
-153 -10 0
-153 -45 0
-153 4 0
153 -36 37 20 -67 52 -25 92 10 45 -4 0
-154 87 0
-154 -74 0
-154 37 0
-154 -71 0
-154 22 0
-154 -15 0
-154 19 0
-154 -78 0
-154 80 0
-154 -33 0
154 -87 74 -37 71 -22 15 -19 78 -80 33 0
-155 24 0
-155 -22 0
-155 12 0
-155 72 0
-155 74 0
-155 23 0
-155 -7 0
-155 -38 0
-155 91 0
-155 78 0
155 -24 22 -12 -72 -74 -23 7 38 -91 -78 0
-156 -30 0
-156 84 0
-156 -22 0
-156 96 0
-156 92 0
-156 -1 0
-156 -48 0
-156 4 0
-156 -6 0
-156 5 0
156 30 -84 22 -96 -92 1 48 -4 6 -5 0
-157 -85 0
-157 57 0
-157 93 0
-157 82 0
-157 12 0
-157 33 0
-157 5 0
-157 -66 0
-157 77 0
-157 -15 0
157 85 -57 -93 -82 -12 -33 -5 66 -77 15 0
-158 81 0
-158 38 0
-158 90 0
-158 -33 0
-158 -88 0
-158 -80 0
-158 85 0
-158 -46 0
-158 54 0
-158 45 0
158 -81 -38 -90 33 88 80 -85 46 -54 -45 0
-159 -55 0
-159 -41 0
-159 48 0
-159 -11 0
-159 84 0
-159 -91 0
-159 -14 0
-159 -57 0
-159 -20 0
-159 -60 0
159 55 41 -48 11 -84 91 14 57 20 60 0
-160 52 0
-160 -9 0
-160 -83 0
-160 -26 0
-160 -4 0
-160 -12 0
-160 46 0
-160 44 0
-160 82 0
-160 -42 0
160 -52 9 83 26 4 12 -46 -44 -82 42 0
151 152 153 154 155 156 157 158 159 160 0
-161 -29 0
-161 72 0
-161 91 0
-161 -81 0
-161 38 0
-161 -48 0
-161 -2 0
-161 -76 0
-161 10 0
-161 71 0
161 29 -72 -91 81 -38 48 2 76 -10 -71 0
-162 17 0
-162 -76 0
-162 62 0
-162 -68 0
-162 13 0
-162 -42 0
-162 25 0
-162 87 0
-162 11 0
-162 36 0
162 -17 76 -62 68 -13 42 -25 -87 -11 -36 0
-163 -65 0
-163 97 0
-163 -13 0
-163 -58 0
-163 77 0
-163 -69 0
-163 -59 0
-163 47 0
-163 57 0
-163 18 0
163 65 -97 13 58 -77 69 59 -47 -57 -18 0
-164 70 0
-164 -28 0
-164 29 0
-164 -86 0
-164 20 0
-164 36 0
-164 14 0
-164 24 0
-164 9 0
-164 -46 0
164 -70 28 -29 86 -20 -36 -14 -24 -9 46 0
-165 22 0
-165 78 0
-165 43 0
-165 -10 0
-165 79 0
-165 -31 0
-165 62 0
-165 -92 0
-165 -88 0
-165 74 0
165 -22 -78 -43 10 -79 31 -62 92 88 -74 0
-166 24 0
-166 66 0
-166 -99 0
-166 -69 0
-166 19 0
-166 97 0
-166 -33 0
-166 82 0
-166 45 0
-166 -88 0
166 -24 -66 99 69 -19 -97 33 -82 -45 88 0
-167 4 0
-167 53 0
-167 -94 0
-167 23 0
-167 -76 0
-167 51 0
-167 73 0
-167 1 0
-167 65 0
-167 60 0
167 -4 -53 94 -23 76 -51 -73 -1 -65 -60 0
-168 45 0
-168 22 0
-168 94 0
-168 93 0
-168 50 0
-168 82 0
-168 -20 0
-168 -47 0
-168 97 0
-168 15 0
168 -45 -22 -94 -93 -50 -82 20 47 -97 -15 0
-169 -75 0
-169 -85 0
-169 -95 0
-169 62 0
-169 -43 0
-169 5 0
-169 -41 0
-169 -82 0
-169 -8 0
-169 12 0
169 75 85 95 -62 43 -5 41 82 8 -12 0
-170 65 0
-170 47 0
-170 -99 0
-170 -32 0
-170 95 0
-170 -68 0
-170 14 0
-170 85 0
-170 -36 0
-170 77 0
170 -65 -47 99 32 -95 68 -14 -85 36 -77 0
161 162 163 164 165 166 167 168 169 170 0
-171 -17 0
-171 83 0
-171 20 0
-171 68 0
-171 14 0
-171 -27 0
-171 -73 0
-171 74 0
-171 -6 0
-171 -87 0
171 17 -83 -20 -68 -14 27 73 -74 6 87 0
-172 52 0
-172 61 0
-172 48 0
-172 17 0
-172 -40 0
-172 -1 0
-172 5 0
-172 -20 0
-172 36 0
-172 -12 0
172 -52 -61 -48 -17 40 1 -5 20 -36 12 0
-173 -60 0
-173 -86 0
-173 -98 0
-173 12 0
-173 -79 0
-173 22 0
-173 55 0
-173 -26 0
-173 -71 0
-173 -13 0
173 60 86 98 -12 79 -22 -55 26 71 13 0
-174 68 0
-174 -64 0
-174 28 0
-174 57 0
-174 10 0
-174 -35 0
-174 33 0
-174 37 0
-174 -63 0
-174 -89 0
174 -68 64 -28 -57 -10 35 -33 -37 63 89 0
-175 -8 0
-175 26 0
-175 78 0
-175 -68 0
-175 -67 0
-175 32 0
-175 58 0
-175 77 0
-175 40 0
-175 93 0
175 8 -26 -78 68 67 -32 -58 -77 -40 -93 0
-176 63 0
-176 -26 0
-176 5 0
-176 68 0
-176 -42 0
-176 79 0
-176 -36 0
-176 -51 0
-176 17 0
-176 -60 0
176 -63 26 -5 -68 42 -79 36 51 -17 60 0
-177 48 0
-177 -37 0
-177 45 0
-177 89 0
-177 -61 0
-177 -96 0
-177 9 0
-177 -12 0
-177 -8 0
-177 55 0
177 -48 37 -45 -89 61 96 -9 12 8 -55 0
-178 29 0
-178 -30 0
-178 72 0
-178 -49 0
-178 36 0
-178 -66 0
-178 -78 0
-178 -68 0
-178 -97 0
-178 11 0
178 -29 30 -72 49 -36 66 78 68 97 -11 0
-179 81 0
-179 50 0
-179 86 0
-179 -62 0
-179 14 0
-179 38 0
-179 63 0
-179 29 0
-179 -12 0
-179 31 0
179 -81 -50 -86 62 -14 -38 -63 -29 12 -31 0
-180 -96 0
-180 53 0
-180 81 0
-180 -36 0
-180 82 0
-180 -5 0
-180 -98 0
-180 -74 0
-180 46 0
-180 -11 0
180 96 -53 -81 36 -82 5 98 74 -46 11 0
171 172 173 174 175 176 177 178 179 180 0
-181 -82 0
-181 84 0
-181 44 0
-181 -54 0
-181 -37 0
-181 60 0
-181 -8 0
-181 13 0
-181 85 0
-181 -12 0
181 82 -84 -44 54 37 -60 8 -13 -85 12 0
-182 -40 0
-182 47 0
-182 45 0
-182 74 0
-182 -87 0
-182 1 0
-182 -63 0
-182 96 0
-182 -76 0
-182 56 0
182 40 -47 -45 -74 87 -1 63 -96 76 -56 0
-183 23 0
-183 90 0
-183 -61 0
-183 -5 0
-183 -38 0
-183 97 0
-183 -39 0
-183 -83 0
-183 73 0
-183 -49 0
183 -23 -90 61 5 38 -97 39 83 -73 49 0
-184 -7 0
-184 -62 0
-184 -97 0
-184 -55 0
-184 6 0
-184 -57 0
-184 -33 0
-184 47 0
-184 26 0
-184 89 0
184 7 62 97 55 -6 57 33 -47 -26 -89 0
-185 43 0
-185 -3 0
-185 66 0
-185 -99 0
-185 65 0
-185 -26 0
-185 17 0
-185 54 0
-185 13 0
-185 -33 0
185 -43 3 -66 99 -65 26 -17 -54 -13 33 0
-186 -59 0
-186 70 0
-186 89 0
-186 -81 0
-186 30 0
-186 49 0
-186 -92 0
-186 -78 0
-186 58 0
-186 45 0
186 59 -70 -89 81 -30 -49 92 78 -58 -45 0
-187 -46 0
-187 21 0
-187 -52 0
-187 -4 0
-187 -91 0
-187 74 0
-187 54 0
-187 -98 0
-187 96 0
-187 86 0
187 46 -21 52 4 91 -74 -54 98 -96 -86 0
-188 -65 0
-188 -6 0
-188 20 0
-188 54 0
-188 69 0
-188 93 0
-188 40 0
-188 -57 0
-188 61 0
-188 84 0
188 65 6 -20 -54 -69 -93 -40 57 -61 -84 0
-189 -43 0
-189 94 0
-189 47 0
-189 58 0
-189 66 0
-189 91 0
-189 36 0
-189 56 0
-189 12 0
-189 7 0
189 43 -94 -47 -58 -66 -91 -36 -56 -12 -7 0
-190 73 0
-190 30 0
-190 -59 0
-190 -32 0
-190 38 0
-190 -8 0
-190 57 0
-190 61 0
-190 91 0
-190 -34 0
190 -73 -30 59 32 -38 8 -57 -61 -91 34 0
181 182 183 184 185 186 187 188 189 190 0
-191 41 0
-191 36 0
-191 -9 0
-191 -97 0
-191 3 0
-191 -99 0
-191 82 0
-191 -70 0
-191 51 0
-191 26 0
191 -41 -36 9 97 -3 99 -82 70 -51 -26 0
-192 76 0
-192 -79 0
-192 47 0
-192 16 0
-192 -46 0
-192 65 0
-192 71 0
-192 15 0
-192 42 0
-192 6 0
192 -76 79 -47 -16 46 -65 -71 -15 -42 -6 0
-193 -92 0
-193 6 0
-193 -89 0
-193 42 0
-193 -18 0
-193 -47 0
-193 -40 0
-193 -10 0
-193 -97 0
-193 73 0
193 92 -6 89 -42 18 47 40 10 97 -73 0
-194 -40 0
-194 -92 0
-194 97 0
-194 -50 0
-194 11 0
-194 -60 0
-194 57 0
-194 53 0
-194 -64 0
-194 -5 0
194 40 92 -97 50 -11 60 -57 -53 64 5 0
-195 -26 0
-195 -90 0
-195 2 0
-195 -80 0
-195 73 0
-195 13 0
-195 1 0
-195 -18 0
-195 41 0
-195 22 0
195 26 90 -2 80 -73 -13 -1 18 -41 -22 0
-196 -90 0
-196 54 0
-196 81 0
-196 26 0
-196 -47 0
-196 49 0
-196 87 0
-196 -14 0
-196 85 0
-196 28 0
196 90 -54 -81 -26 47 -49 -87 14 -85 -28 0
-197 6 0
-197 -7 0
-197 71 0
-197 65 0
-197 -43 0
-197 85 0
-197 49 0
-197 57 0
-197 -5 0
-197 -8 0
197 -6 7 -71 -65 43 -85 -49 -57 5 8 0
-198 82 0
-198 -70 0
-198 -61 0
-198 -81 0
-198 -37 0
-198 -30 0
-198 46 0
-198 -65 0
-198 -32 0
-198 -74 0
198 -82 70 61 81 37 30 -46 65 32 74 0
-199 -17 0
-199 40 0
-199 88 0
-199 76 0
-199 -41 0
-199 -95 0
-199 98 0
-199 -69 0
-199 -12 0
-199 -82 0
199 17 -40 -88 -76 41 95 -98 69 12 82 0
-200 -74 0
-200 27 0
-200 -15 0
-200 -62 0
-200 48 0
-200 -92 0
-200 13 0
-200 -91 0
-200 -93 0
-200 -76 0
200 74 -27 15 62 -48 92 -13 91 93 76 0
191 192 193 194 195 196 197 198 199 200 0
